11 11
0 100 100 5 3 3 5 100 100 100 100 
100 0 100 4 2 2 4 4 2 2 4 
100 100 0 100 100 100 100 4 2 2 4 
5 4 100 0 2 100 100 2 4 100 100 
3 2 100 2 0 100 100 4 2 100 100 
3 2 100 100 100 0 2 100 100 2 4 
5 4 100 100 100 2 0 100 100 4 2 
100 4 4 2 4 100 100 0 2 100 100 
100 2 2 4 2 100 100 2 0 100 100 
100 2 2 100 100 2 4 100 100 0 2 
100 4 4 100 100 4 2 100 100 2 0 
